\* Problem: Unknown *\

Maximize
 obj: + xp_0_0 + xp_1_0 + xp_1_1 + xp_2_0 + xp_2_1 + xp_3_0 + xp_3_1
 + xp_3_2 + xp_4_0 + xp_4_1 + xp_5_0 + xp_5_1 + xp_6_0 + xp_7_0 + xp_8_0
 + xp_9_0 + xp_9_1 + xp_10_0 + xp_11_0 + xp_11_1 + xp_12_0 + xp_12_1
 + xp_12_2 + xp_13_0 + xp_13_1 + xp_14_0 + xp_14_1 + xp_15_0 + xp_16_0
 + xp_17_0 + xp_17_1 + xp_18_0 + xp_18_1 + xp_18_2 + xp_19_0 + xp_19_1
 + xp_20_0 + xp_21_0 + xp_22_0 + xp_22_1 + xp_23_0 + xp_24_0 + xp_24_1
 + xp_24_2 + xp_24_3 + xp_25_0 + xp_26_0 + xp_26_1 + xp_26_2 + xp_27_0
 + xp_27_1 + xp_28_0 + xp_28_1 + xp_29_0 + xp_30_0 + xp_30_1 + xp_30_2
 + xp_31_0 + xp_32_0 + xp_32_1 + xp_33_0 + xp_34_0 + xp_34_1 + xp_35_0
 + xp_36_0 + xp_37_0 + xp_38_0 + xp_38_1 + xp_39_0 + xp_40_0 + xp_40_1
 + xp_41_0 + xp_41_1 + xp_42_0 + xp_42_1 + xp_43_0 + xp_44_0 + xp_44_1
 + xp_45_0 + xp_45_1 + xp_45_2 + xp_46_0 + xp_47_0 + xp_48_0 + xp_48_1
 + xp_49_0 + xp_50_0 + xp_50_1 + xp_51_0 + xp_52_0 + xp_53_0 + xp_53_1
 + xp_53_2 + xp_54_0 + xp_55_0 + xp_56_0 + xp_57_0 + xp_57_1 + xp_58_0
 + xp_58_1 + xp_58_2 + xp_59_0 + xp_60_0 + xp_60_1 + xp_61_0 + xp_61_1
 + xp_62_0 + xp_63_0 + xp_63_1 + xp_64_0 + xp_65_0 + xp_66_0 + xp_67_0
 + xp_67_1 + xp_68_0 + xp_68_1 + xp_68_2 + xp_69_0 + xp_70_0 + xp_71_0
 + xp_72_0 + xp_73_0 + xp_74_0 + xp_74_1 + xp_75_0 + xp_76_0 + xp_77_0
 + xp_77_1 + xp_78_0 + xp_78_1 + xp_78_2 + xp_79_0 + xp_79_1 + xp_79_2
 + xp_80_0 + xp_80_1 + xp_81_0 + xp_81_1 + xp_81_2 + xp_82_0 + xp_82_1
 + xp_82_2 + xp_83_0 + xp_83_1 + xp_84_0 + xp_85_0 + xp_85_1 + xp_85_2
 + xp_86_0 + xp_87_0 + xp_88_0 + xp_88_1 + xp_89_0 + xp_90_0 + xp_90_1
 + xp_90_2 + xp_91_0 + xp_91_1 + xp_91_2 + xp_92_0 + xp_92_1 + xp_92_2
 + xp_92_3 + xp_93_0 + xp_94_0 + xp_94_1 + xp_94_2 + xp_94_3 + xp_95_0
 + xp_95_1 + xp_95_2 + xp_96_0 + xp_96_1 + xp_97_0 + xp_98_0 + xp_98_1
 + xp_98_2 + xp_98_3 + xp_99_0 + xp_99_1 + xp_99_2 + xp_100_0 + xp_101_0
 + xp_101_1 + xp_102_0 + xp_103_0 + xp_104_0 + xp_104_1 + xp_105_0
 + xp_105_1 + xp_106_0 + xp_106_1 + xp_106_2 + xp_107_0 + xp_108_0
 + xp_108_1 + xp_108_2 + xp_109_0 + xp_109_1 + xp_110_0 + xp_111_0
 + xp_111_1 + xp_111_2 + xp_112_0 + xp_112_1 + xp_113_0 + xp_114_0
 + xp_115_0 + xp_115_1 + xp_116_0 + xp_116_1 + xp_117_0 + xp_118_0
 + xp_119_0 + xp_119_1 + xp_119_2 + xp_120_0 + xp_120_1 + xp_120_2
 + xp_121_0 + xp_122_0 + xp_123_0 + xp_123_1 + xp_124_0 + xp_124_1
 + xp_125_0 + xp_125_1 + xp_126_0 + xp_126_1 + xp_126_2 + xp_126_3
 + xp_127_0 + xp_127_1 + xp_128_0 + xp_128_1 + xp_129_0 + xp_129_1
 + xp_130_0 + xp_131_0 + xp_131_1 + xp_131_2

Subject To
 r_1: + xp_128_1 + xp_123_1 + xp_122_0 + xp_121_0 + xp_108_1 + xp_107_0
 + xp_78_2 + xp_67_1 + xp_57_1 + xp_40_1 + xp_25_0 + xp_22_1 + xp_18_2
 + xp_18_1 + xp_16_0 + xp_13_1 + xp_4_0 <= 39033.1753554502
 r_2: + xp_131_2 + xp_131_0 + xp_127_0 + xp_126_3 + xp_126_1 + xp_120_1
 + xp_120_0 + xp_94_3 + xp_94_1 + xp_93_0 + xp_90_2 + xp_85_2 + xp_85_1
 + xp_85_0 + xp_77_1 + xp_75_0 + xp_74_1 + xp_71_0 + xp_66_0 + xp_65_0
 + xp_61_1 + xp_55_0 + xp_52_0 + xp_48_1 + xp_48_0 + xp_42_1 + xp_38_1
 + xp_32_0 + xp_28_1 + xp_28_0 + xp_24_3 + xp_24_1 + xp_24_0 + xp_19_1
 + xp_19_0 + xp_12_2 + xp_12_1 + xp_1_1 <= 34729.5900792284
 r_3: + xp_124_1 + xp_114_0 + xp_106_2 + xp_105_1 + xp_98_3 + xp_95_1
 + xp_94_3 + xp_94_2 + xp_92_2 + xp_91_1 + xp_85_2 + xp_83_1 + xp_79_1
 + xp_76_0 + xp_68_2 + xp_41_1 + xp_34_0 + xp_30_2 + xp_26_2 + xp_24_3
 <= 36540.9934171155
 r_4: + xp_119_2 + xp_117_0 + xp_112_1 + xp_111_2 + xp_104_1 + xp_95_2
 + xp_95_0 + xp_91_2 + xp_91_0 + xp_88_1 + xp_84_0 + xp_82_2 + xp_81_2
 + xp_79_2 + xp_79_0 + xp_53_2 + xp_46_0 + xp_45_2 + xp_44_1 + xp_43_0
 + xp_40_1 + xp_40_0 + xp_34_1 + xp_27_1 + xp_18_2 + xp_3_2
 <= 35361.6284105673
 r_5: + xp_130_0 + xp_119_2 + xp_112_1 + xp_111_2 + xp_104_1 + xp_99_0
 + xp_88_1 + xp_82_2 + xp_81_2 + xp_53_2 + xp_45_2 + xp_44_1 + xp_27_1
 + xp_18_2 + xp_7_0 + xp_3_2 + xp_2_0 <= 36540.9934171155
 r_6: + xp_126_2 + xp_119_0 + xp_114_0 + xp_95_1 + xp_92_2 + xp_92_1
 + xp_91_1 + xp_83_1 + xp_83_0 + xp_82_1 + xp_81_0 + xp_79_1 + xp_70_0
 + xp_68_2 + xp_68_1 + xp_58_1 + xp_53_0 + xp_48_1 + xp_45_0 + xp_34_0
 + xp_32_1 + xp_30_2 + xp_30_1 + xp_18_1 + xp_5_1 <= 38172.0430107527
 r_7: + xp_119_1 + xp_111_1 + xp_104_0 + xp_88_0 + xp_82_0 + xp_81_1
 + xp_78_1 + xp_53_1 + xp_50_1 + xp_45_1 + xp_44_0 + xp_27_0 + xp_18_0
 + xp_4_1 + xp_3_1 <= 35361.6284105673
 r_8: + xp_131_2 + xp_131_0 + xp_127_0 + xp_126_3 + xp_126_1 + xp_120_1
 + xp_120_0 + xp_118_0 + xp_103_0 + xp_94_3 + xp_94_1 + xp_90_2
 + xp_77_1 + xp_74_1 + xp_71_0 + xp_61_1 + xp_55_0 + xp_42_1 + xp_38_1
 + xp_32_0 + xp_24_3 + xp_24_1 + xp_24_0 + xp_12_2 + xp_12_1 + xp_1_1
 <= 39033.1753554502
 r_9: + xp_131_1 + xp_127_1 + xp_123_1 + xp_122_0 + xp_120_2 + xp_108_1
 + xp_78_2 + xp_77_0 + xp_67_1 + xp_57_1 + xp_42_0 + xp_33_0 + xp_32_1
 + xp_24_2 <= 39177.1539206196
 r_10: + xp_112_1 + xp_111_2 + xp_111_1 + xp_106_0 + xp_99_0 + xp_98_0
 + xp_88_1 + xp_88_0 + xp_85_0 + xp_78_1 + xp_50_1 + xp_26_0 + xp_24_0
 + xp_8_0 + xp_7_0 + xp_4_1 + xp_3_2 + xp_3_1 + xp_2_0
 <= 38172.0430107527
 r_11: + xp_119_0 + xp_112_0 + xp_111_0 + xp_95_1 + xp_91_1 + xp_82_1
 + xp_81_0 + xp_79_1 + xp_78_2 + xp_78_0 + xp_59_0 + xp_53_0 + xp_50_0
 + xp_49_0 + xp_45_0 + xp_34_0 + xp_18_1 + xp_4_0 + xp_3_0
 <= 35837.0814592704
 r_12: + xp_129_1 + xp_128_0 + xp_123_0 + xp_119_1 + xp_117_0 + xp_111_2
 + xp_111_1 + xp_108_2 + xp_101_0 + xp_95_0 + xp_91_2 + xp_82_2
 + xp_82_0 + xp_81_2 + xp_81_1 + xp_80_1 + xp_79_2 + xp_78_1 + xp_78_0
 + xp_73_0 + xp_63_1 + xp_60_1 + xp_50_1 + xp_46_0 + xp_45_1 + xp_44_1
 + xp_44_0 + xp_40_0 + xp_18_0 + xp_17_1 + xp_15_0 + xp_14_0 + xp_13_0
 + xp_9_0 + xp_4_1 <= 35452.5189478377
 r_13: + xp_129_0 + xp_128_1 + xp_126_3 + xp_123_1 + xp_120_2 + xp_120_1
 + xp_119_2 + xp_112_1 + xp_109_1 + xp_101_1 + xp_100_0 + xp_96_1
 + xp_95_2 + xp_92_3 + xp_91_0 + xp_90_0 + xp_80_0 + xp_79_0 + xp_68_0
 + xp_63_0 + xp_60_0 + xp_58_2 + xp_53_2 + xp_53_1 + xp_45_2 + xp_40_1
 + xp_34_1 + xp_31_0 + xp_30_0 + xp_18_2 + xp_17_0 + xp_13_1 + xp_9_1
 <= 35837.0814592704
 r_14: + xp_131_2 + xp_131_1 + xp_131_0 + xp_126_2 + xp_125_1 + xp_125_0
 + xp_124_1 + xp_124_0 + xp_115_1 + xp_115_0 + xp_106_2 + xp_106_1
 + xp_99_2 + xp_99_1 + xp_98_3 + xp_98_2 + xp_98_1 + xp_94_3 + xp_94_2
 + xp_94_1 + xp_94_0 + xp_92_2 + xp_92_1 + xp_86_0 + xp_85_2 + xp_85_1
 + xp_77_1 + xp_77_0 + xp_68_2 + xp_68_1 + xp_65_0 + xp_58_1 + xp_56_0
 + xp_51_0 + xp_48_1 + xp_41_1 + xp_41_0 + xp_38_1 + xp_38_0 + xp_35_0
 + xp_32_1 + xp_30_2 + xp_30_1 + xp_26_2 + xp_26_1 + xp_24_3 + xp_24_2
 + xp_24_1 + xp_20_0 + xp_19_1 + xp_19_0 + xp_12_2 + xp_12_1 + xp_12_0
 + xp_5_1 + xp_2_1 + xp_0_0 <= 35361.6284105673
 r_15: + xp_131_1 + xp_131_0 + xp_126_3 + xp_126_2 + xp_125_0 + xp_124_1
 + xp_124_0 + xp_120_2 + xp_120_1 + xp_116_0 + xp_115_0 + xp_109_1
 + xp_99_1 + xp_98_3 + xp_98_1 + xp_96_1 + xp_94_3 + xp_94_2 + xp_94_0
 + xp_92_3 + xp_92_2 + xp_92_1 + xp_90_0 + xp_89_0 + xp_86_0 + xp_85_2
 + xp_85_1 + xp_77_1 + xp_77_0 + xp_68_2 + xp_68_1 + xp_68_0 + xp_65_0
 + xp_58_2 + xp_58_1 + xp_51_0 + xp_48_1 + xp_42_1 + xp_42_0 + xp_38_1
 + xp_38_0 + xp_36_0 + xp_32_1 + xp_28_0 + xp_26_1 + xp_24_2 + xp_24_1
 + xp_19_1 + xp_12_2 + xp_12_0 + xp_11_1 + xp_0_0 <= 35452.5189478377
 r_16: + xp_128_0 + xp_123_0 + xp_108_2 + xp_108_0 + xp_78_1 + xp_78_0
 + xp_73_0 + xp_67_0 + xp_57_0 + xp_46_0 + xp_44_1 + xp_44_0 + xp_40_0
 + xp_22_0 + xp_18_0 + xp_13_0 + xp_6_0 + xp_4_1 <= 39177.1539206196
 r_17: + xp_129_1 + xp_126_0 + xp_119_1 + xp_111_2 + xp_111_1 + xp_109_0
 + xp_97_0 + xp_95_0 + xp_91_2 + xp_90_1 + xp_81_2 + xp_81_1 + xp_80_1
 + xp_79_2 + xp_63_1 + xp_62_0 + xp_61_0 + xp_60_1 + xp_47_0 + xp_45_1
 + xp_22_1 + xp_17_1 + xp_9_0 + xp_1_0 <= 34729.5900792284
 r_18: + xp_126_3 + xp_126_1 + xp_126_0 + xp_106_0 + xp_99_0 + xp_98_0
 + xp_92_3 + xp_92_0 + xp_85_0 + xp_68_0 + xp_58_2 + xp_58_0 + xp_48_0
 + xp_32_0 + xp_30_0 + xp_26_0 + xp_24_0 + xp_5_0 + xp_2_0
 <= 35837.0814592704
 r_19: + xp_131_2 + xp_125_1 + xp_116_1 + xp_115_1 + xp_110_0 + xp_108_2
 + xp_106_2 + xp_106_1 + xp_99_2 + xp_98_2 + xp_94_1 + xp_78_0 + xp_56_0
 + xp_28_1 + xp_26_2 + xp_24_3 + xp_19_0 + xp_14_0 + xp_12_1 + xp_11_0
 + xp_5_1 + xp_3_0 + xp_2_1 <= 35837.0814592704
 r_20: + xp_129_0 + xp_128_1 + xp_123_1 + xp_119_2 + xp_119_0 + xp_112_1
 + xp_112_0 + xp_111_0 + xp_108_1 + xp_108_0 + xp_107_0 + xp_101_1
 + xp_95_2 + xp_95_1 + xp_91_1 + xp_91_0 + xp_82_1 + xp_81_0 + xp_80_0
 + xp_79_1 + xp_79_0 + xp_78_2 + xp_69_0 + xp_64_0 + xp_63_0 + xp_60_0
 + xp_50_0 + xp_49_0 + xp_45_2 + xp_45_0 + xp_40_1 + xp_18_2 + xp_18_1
 + xp_17_0 + xp_14_1 + xp_13_1 + xp_10_0 + xp_9_1 + xp_4_0
 <= 34729.5900792284
 r_21: + xp_124_1 + xp_113_0 + xp_106_2 + xp_105_1 + xp_99_2 + xp_99_1
 + xp_98_3 + xp_94_3 + xp_94_2 + xp_92_2 + xp_86_0 + xp_85_2 + xp_83_1
 + xp_77_1 + xp_77_0 + xp_68_2 + xp_65_0 + xp_41_1 + xp_38_1 + xp_38_0
 + xp_30_2 + xp_26_2 + xp_24_3 + xp_20_0 + xp_2_1 + xp_0_0
 <= 35361.6284105673
 r_22: + xp_126_2 + xp_124_0 + xp_106_1 + xp_105_0 + xp_98_2 + xp_98_1
 + xp_94_1 + xp_94_0 + xp_92_1 + xp_85_1 + xp_83_0 + xp_68_1 + xp_58_1
 + xp_48_1 + xp_41_0 + xp_32_1 + xp_30_1 + xp_26_1 + xp_24_2 + xp_24_1
 + xp_5_1 <= 35361.6284105673
 r_23: + xp_128_1 + xp_128_0 + xp_119_2 + xp_119_1 + xp_117_0 + xp_112_1
 + xp_111_2 + xp_111_1 + xp_104_1 + xp_104_0 + xp_100_0 + xp_95_2
 + xp_95_0 + xp_91_2 + xp_91_0 + xp_84_0 + xp_82_2 + xp_82_0 + xp_81_2
 + xp_81_1 + xp_80_1 + xp_80_0 + xp_79_2 + xp_79_0 + xp_78_1 + xp_73_0
 + xp_60_1 + xp_60_0 + xp_53_2 + xp_53_1 + xp_50_1 + xp_46_0 + xp_45_2
 + xp_45_1 + xp_44_1 + xp_44_0 + xp_40_1 + xp_40_0 + xp_34_1 + xp_21_0
 + xp_18_2 + xp_18_0 + xp_15_0 + xp_9_1 + xp_9_0 + xp_4_1 + xp_3_2
 + xp_3_1 <= 35361.6284105673
 r_24: + xp_128_0 + xp_126_3 + xp_126_1 + xp_103_0 + xp_94_3 + xp_94_1
 + xp_90_2 + xp_74_1 + xp_61_1 + xp_40_0 + xp_39_0 + xp_38_1 + xp_22_0
 + xp_18_0 + xp_13_0 + xp_12_2 + xp_12_1 + xp_4_1 + xp_1_1
 <= 39177.1539206196
 r_25: + xp_131_1 + xp_127_1 + xp_126_2 + xp_126_0 + xp_120_2 + xp_94_2
 + xp_94_0 + xp_90_1 + xp_90_0 + xp_89_0 + xp_77_0 + xp_74_0 + xp_61_0
 + xp_42_0 + xp_38_0 + xp_32_1 + xp_24_2 + xp_12_0 + xp_1_0
 <= 39177.1539206196
 r_26: + xp_128_1 + xp_123_1 + xp_121_0 + xp_112_1 + xp_112_0 + xp_108_1
 + xp_107_0 + xp_81_2 + xp_81_1 + xp_81_0 + xp_79_2 + xp_79_1 + xp_79_0
 + xp_78_2 + xp_67_1 + xp_64_0 + xp_60_1 + xp_60_0 + xp_57_1 + xp_47_0
 + xp_40_1 + xp_37_0 + xp_29_0 + xp_25_0 + xp_22_1 + xp_18_2 + xp_18_1
 + xp_17_1 + xp_17_0 + xp_13_1 + xp_4_0 <= 34729.5900792284
 r_27: + xp_131_0 + xp_127_0 + xp_126_3 + xp_125_0 + xp_120_1 + xp_116_0
 + xp_115_0 + xp_108_0 + xp_101_1 + xp_99_1 + xp_98_3 + xp_98_1
 + xp_96_1 + xp_94_3 + xp_92_3 + xp_92_2 + xp_92_1 + xp_86_0 + xp_85_2
 + xp_85_1 + xp_82_1 + xp_77_1 + xp_74_1 + xp_72_0 + xp_67_0 + xp_65_0
 + xp_58_2 + xp_58_1 + xp_57_0 + xp_52_0 + xp_50_0 + xp_48_1 + xp_42_1
 + xp_38_1 + xp_28_0 + xp_26_1 + xp_24_1 + xp_23_0 + xp_19_1 + xp_14_1
 + xp_12_2 + xp_11_1 <= 34729.5900792284
 r_28: + xp_131_2 + xp_126_1 + xp_126_0 + xp_125_1 + xp_120_0 + xp_116_1
 + xp_115_1 + xp_109_0 + xp_99_2 + xp_99_0 + xp_98_2 + xp_98_0 + xp_96_0
 + xp_94_1 + xp_92_0 + xp_90_2 + xp_90_1 + xp_85_0 + xp_75_0 + xp_58_0
 + xp_54_0 + xp_48_0 + xp_32_0 + xp_28_1 + xp_26_2 + xp_26_0 + xp_24_3
 + xp_24_0 + xp_19_0 + xp_12_1 + xp_11_0 <= 34729.5900792284
 r_29: + xp_129_1 + xp_129_0 + xp_95_2 + xp_95_1 + xp_95_0 + xp_93_0
 + xp_87_0 + xp_71_0 + xp_62_0 + xp_49_0 + xp_45_2 + xp_45_1 + xp_45_0
 + xp_10_0 + xp_9_1 + xp_9_0 + xp_1_1 + xp_1_0 <= 34729.5900792284
 r_30: + xp_125_1 + xp_125_0 + xp_121_0 + xp_102_0 + xp_99_2 + xp_99_1
 + xp_99_0 + xp_96_1 + xp_96_0 + xp_92_3 + xp_92_2 + xp_92_1 + xp_92_0
 + xp_57_1 + xp_57_0 + xp_37_0 + xp_26_2 + xp_26_1 + xp_26_0 + xp_23_0
 + xp_11_1 + xp_11_0 <= 34729.5900792284

Bounds
 0 <= xp_0_0 <= 236.464069543334
 0 <= xp_1_0 <= 91.4812112618765
 0 <= xp_1_1 <= 91.4812112618765
 0 <= xp_2_0 <= 19.2099535080595
 0 <= xp_2_1 <= 96.0497675402975
 0 <= xp_3_0 <= 91.3491084297294
 0 <= xp_3_1 <= 60.8994056198196
 0 <= xp_3_2 <= 30.4497028099098
 0 <= xp_4_0 <= 658.807832487003
 0 <= xp_4_1 <= 131.761566497401
 0 <= xp_5_0 <= 904.739271667547
 0 <= xp_5_1 <= 180.947854333509
 0 <= xp_6_0 <= 1795.73984879179
 0 <= xp_7_0 <= 639.641913256326
 0 <= xp_8_0 <= 1512.9737365809
 0 <= xp_9_0 <= 36.1521417309269
 0 <= xp_9_1 <= 72.3042834618538
 0 <= xp_10_0 <= 54.9547781731995
 0 <= xp_11_0 <= 13.870797375447
 0 <= xp_11_1 <= 27.741594750894
 0 <= xp_12_0 <= 1381.04704154331
 0 <= xp_12_1 <= 345.261760385828
 0 <= xp_12_2 <= 345.261760385828
 0 <= xp_13_0 <= 126.257281824604
 0 <= xp_13_1 <= 126.257281824604
 0 <= xp_14_0 <= 36.7355959062433
 0 <= xp_14_1 <= 183.677979531216
 0 <= xp_15_0 <= 508.199595269948
 0 <= xp_16_0 <= 2646.61419065136
 0 <= xp_17_0 <= 248.078110202935
 0 <= xp_17_1 <= 49.6156220405869
 0 <= xp_18_0 <= 179.891031676333
 0 <= xp_18_1 <= 59.9636772254442
 0 <= xp_18_2 <= 119.927354450888
 0 <= xp_19_0 <= 530.458922486736
 0 <= xp_19_1 <= 530.458922486736
 0 <= xp_20_0 <= 128.536055679142
 0 <= xp_21_0 <= 275.104147946365
 0 <= xp_22_0 <= 617.415611747574
 0 <= xp_22_1 <= 617.415611747574
 0 <= xp_23_0 <= 52.1145672820365
 0 <= xp_24_0 <= 113.806589894739
 0 <= xp_24_1 <= 113.806589894739
 0 <= xp_24_2 <= 56.9032949473694
 0 <= xp_24_3 <= 56.9032949473694
 0 <= xp_25_0 <= 580.129587374051
 0 <= xp_26_0 <= 5.12999331504626
 0 <= xp_26_1 <= 7.69498997256939
 0 <= xp_26_2 <= 2.56499665752313
 0 <= xp_27_0 <= 225.8077744168
 0 <= xp_27_1 <= 112.9038872084
 0 <= xp_28_0 <= 446.067229883422
 0 <= xp_28_1 <= 223.033614941711
 0 <= xp_29_0 <= 2453.81010713264
 0 <= xp_30_0 <= 61.2736969775697
 0 <= xp_30_1 <= 91.9105454663546
 0 <= xp_30_2 <= 30.6368484887849
 0 <= xp_31_0 <= 191.0867467008
 0 <= xp_32_0 <= 1504.51915532348
 0 <= xp_32_1 <= 752.259577661741
 0 <= xp_33_0 <= 8079.87157403001
 0 <= xp_34_0 <= 85.3604467057269
 0 <= xp_34_1 <= 426.802233528634
 0 <= xp_35_0 <= 261.695710483433
 0 <= xp_36_0 <= 319.75490521209
 0 <= xp_37_0 <= 365.792742215359
 0 <= xp_38_0 <= 279.727747071514
 0 <= xp_38_1 <= 55.9455494143028
 0 <= xp_39_0 <= 1577.43991866869
 0 <= xp_40_0 <= 425.668350886038
 0 <= xp_40_1 <= 425.668350886038
 0 <= xp_41_0 <= 53.4135784648164
 0 <= xp_41_1 <= 26.7067892324082
 0 <= xp_42_0 <= 75.893077068517
 0 <= xp_42_1 <= 379.465385342585
 0 <= xp_43_0 <= 493.338026653397
 0 <= xp_44_0 <= 306.522604858687
 0 <= xp_44_1 <= 153.261302429343
 0 <= xp_45_0 <= 28.4461431890119
 0 <= xp_45_1 <= 7.11153579725297
 0 <= xp_45_2 <= 7.11153579725297
 0 <= xp_46_0 <= 1609.73906112866
 0 <= xp_47_0 <= 881.257993253398
 0 <= xp_48_0 <= 1942.74828383284
 0 <= xp_48_1 <= 971.374141916421
 0 <= xp_49_0 <= 88.3107432903458
 0 <= xp_50_0 <= 655.340133143142
 0 <= xp_50_1 <= 131.068026628628
 0 <= xp_51_0 <= 711.439802528283
 0 <= xp_52_0 <= 664.146988619616
 0 <= xp_53_0 <= 126.950821693377
 0 <= xp_53_1 <= 31.7377054233442
 0 <= xp_53_2 <= 31.7377054233442
 0 <= xp_54_0 <= 3703.30474499612
 0 <= xp_55_0 <= 1188.33102657936
 0 <= xp_56_0 <= 96.0387589709519
 0 <= xp_57_0 <= 172.174024565072
 0 <= xp_57_1 <= 34.4348049130144
 0 <= xp_58_0 <= 3039.06968782174
 0 <= xp_58_1 <= 759.767421955435
 0 <= xp_58_2 <= 759.767421955435
 0 <= xp_59_0 <= 10672.6538605814
 0 <= xp_60_0 <= 566.390892830752
 0 <= xp_60_1 <= 113.27817856615
 0 <= xp_61_0 <= 1213.26543614713
 0 <= xp_61_1 <= 1213.26543614713
 0 <= xp_62_0 <= 131.574420818526
 0 <= xp_63_0 <= 110.140736302656
 0 <= xp_63_1 <= 22.0281472605313
 0 <= xp_64_0 <= 997.046125630343
 0 <= xp_65_0 <= 523.787729463307
 0 <= xp_66_0 <= 1684.50926412393
 0 <= xp_67_0 <= 338.073164603156
 0 <= xp_67_1 <= 67.6146329206312
 0 <= xp_68_0 <= 492.435323967059
 0 <= xp_68_1 <= 738.652985950588
 0 <= xp_68_2 <= 246.217661983529
 0 <= xp_69_0 <= 1723.21539394303
 0 <= xp_70_0 <= 633.367028729338
 0 <= xp_71_0 <= 71.0713236951474
 0 <= xp_72_0 <= 600.671577772928
 0 <= xp_73_0 <= 925.512442022681
 0 <= xp_74_0 <= 796.52503500037
 0 <= xp_74_1 <= 159.305007000074
 0 <= xp_75_0 <= 1768.79087103378
 0 <= xp_76_0 <= 1726.782170411
 0 <= xp_77_0 <= 382.481733343278
 0 <= xp_77_1 <= 191.240866671639
 0 <= xp_78_0 <= 4678.30070622724
 0 <= xp_78_1 <= 14034.9021186817
 0 <= xp_78_2 <= 9356.60141245449
 0 <= xp_79_0 <= 356.193269746002
 0 <= xp_79_1 <= 356.193269746002
 0 <= xp_79_2 <= 356.193269746002
 0 <= xp_80_0 <= 150.77336575724
 0 <= xp_80_1 <= 75.3866828786198
 0 <= xp_81_0 <= 174.463806988955
 0 <= xp_81_1 <= 43.6159517472388
 0 <= xp_81_2 <= 43.6159517472388
 0 <= xp_82_0 <= 73.4932089511778
 0 <= xp_82_1 <= 73.4932089511778
 0 <= xp_82_2 <= 73.4932089511778
 0 <= xp_83_0 <= 336.950290529906
 0 <= xp_83_1 <= 168.475145264953
 0 <= xp_84_0 <= 892.81699106627
 0 <= xp_85_0 <= 68.3301899280947
 0 <= xp_85_1 <= 204.990569784284
 0 <= xp_85_2 <= 136.660379856189
 0 <= xp_86_0 <= 171.997887455543
 0 <= xp_87_0 <= 141.746338893853
 0 <= xp_88_0 <= 213.313048209552
 0 <= xp_88_1 <= 213.313048209552
 0 <= xp_89_0 <= 2228.17846982537
 0 <= xp_90_0 <= 10887.6842456089
 0 <= xp_90_1 <= 7258.45616373926
 0 <= xp_90_2 <= 3629.22808186963
 0 <= xp_91_0 <= 910.166496354925
 0 <= xp_91_1 <= 910.166496354925
 0 <= xp_91_2 <= 910.166496354925
 0 <= xp_92_0 <= 33.554119365367
 0 <= xp_92_1 <= 11.1847064551223
 0 <= xp_92_2 <= 11.1847064551223
 0 <= xp_92_3 <= 11.1847064551223
 0 <= xp_93_0 <= 130.91390665779
 0 <= xp_94_0 <= 118.958600348476
 0 <= xp_94_1 <= 39.6528667828254
 0 <= xp_94_2 <= 39.6528667828254
 0 <= xp_94_3 <= 39.6528667828254
 0 <= xp_95_0 <= 30.7799598902776
 0 <= xp_95_1 <= 10.2599866300925
 0 <= xp_95_2 <= 20.5199732601851
 0 <= xp_96_0 <= 57.9270918965095
 0 <= xp_96_1 <= 57.9270918965095
 0 <= xp_97_0 <= 529.468151245633
 0 <= xp_98_0 <= 23.9326297573188
 0 <= xp_98_1 <= 47.8652595146377
 0 <= xp_98_2 <= 23.9326297573188
 0 <= xp_98_3 <= 47.8652595146377
 0 <= xp_99_0 <= 2.74113376705262
 0 <= xp_99_1 <= 10.9645350682105
 0 <= xp_99_2 <= 2.74113376705262
 0 <= xp_100_0 <= 505.227281546638
 0 <= xp_101_0 <= 209.162817566264
 0 <= xp_101_1 <= 41.8325635132528
 0 <= xp_102_0 <= 75.298614323855
 0 <= xp_103_0 <= 1446.2618063466
 0 <= xp_104_0 <= 66.2495703217777
 0 <= xp_104_1 <= 66.2495703217777
 0 <= xp_105_0 <= 970.955816281288
 0 <= xp_105_1 <= 485.477908140644
 0 <= xp_106_0 <= 6.93539868772349
 0 <= xp_106_1 <= 27.741594750894
 0 <= xp_106_2 <= 6.93539868772349
 0 <= xp_107_0 <= 451.79168594313
 0 <= xp_108_0 <= 426.460967878921
 0 <= xp_108_1 <= 284.307311919281
 0 <= xp_108_2 <= 142.15365595964
 0 <= xp_109_0 <= 485.543959556718
 0 <= xp_109_1 <= 485.543959556718
 0 <= xp_110_0 <= 133.820168965027
 0 <= xp_111_0 <= 1958.82079507741
 0 <= xp_111_1 <= 489.705198769352
 0 <= xp_111_2 <= 489.705198769352
 0 <= xp_112_0 <= 3918.88555849087
 0 <= xp_112_1 <= 783.777111698173
 0 <= xp_113_0 <= 427.352661995914
 0 <= xp_114_0 <= 2408.76304137048
 0 <= xp_115_0 <= 184.94396500596
 0 <= xp_115_1 <= 36.9887930011919
 0 <= xp_116_0 <= 133.699074702225
 0 <= xp_116_1 <= 26.739814940445
 0 <= xp_117_0 <= 1952.14960205398
 0 <= xp_118_0 <= 3169.14694320927
 0 <= xp_119_0 <= 21.0263674500823
 0 <= xp_119_1 <= 21.0263674500823
 0 <= xp_119_2 <= 21.0263674500823
 0 <= xp_120_0 <= 1089.78231379762
 0 <= xp_120_1 <= 726.521542531745
 0 <= xp_120_2 <= 363.260771265872
 0 <= xp_121_0 <= 75.893077068517
 0 <= xp_122_0 <= 2285.18084189685
 0 <= xp_123_0 <= 430.15984717904
 0 <= xp_123_1 <= 86.031969435808
 0 <= xp_124_0 <= 115.259721048357
 0 <= xp_124_1 <= 23.0519442096714
 0 <= xp_125_0 <= 22.8427813921051
 0 <= xp_125_1 <= 4.56855627842103
 0 <= xp_126_0 <= 4249.20869027473
 0 <= xp_126_1 <= 8498.41738054945
 0 <= xp_126_2 <= 8498.41738054945
 0 <= xp_126_3 <= 4249.20869027473
 0 <= xp_127_0 <= 289.734536606658
 0 <= xp_127_1 <= 289.734536606658
 0 <= xp_128_0 <= 203.999798543181
 0 <= xp_128_1 <= 203.999798543181
 0 <= xp_129_0 <= 32.8055366498667
 0 <= xp_129_1 <= 16.4027683249333
 0 <= xp_130_0 <= 405.489643275567
 0 <= xp_131_0 <= 128.547064248488
 0 <= xp_131_1 <= 257.094128496975
 0 <= xp_131_2 <= 385.641192745463

End
